p cnf 7 7
11 -12 -13 -14 -15 16 -17 0
-11 12 -13 -14 -15 -16 -17 0
-11 -12 13 -14 -15 16 -17 0
-11 -12 -13 14 -15 -16 -17 0
-11 -12 -13 -14 15 -16 -17 0
11 -12 13 -14 -15 16 -17 0
-11 -12 -13 -14 -15 -16 17 0
